HFSDDW
15	12	4
0	50	1	78	2	92	3	28
0	71	1	84	2	28	3	82
0	29	1	91	2	66	3	39
0	69	1	51	2	16	3	94
0	1	1	65	2	92	3	34
0	23	1	43	2	96	3	74
0	21	1	38	2	47	3	67
0	71	1	85	2	24	3	41
0	10	1	41	2	53	3	43
0	32	1	71	2	49	3	88
0	6	1	4	2	95	3	66
0	87	1	79	2	70	3	74
0	29	1	27	2	83	3	1
0	2	1	10	2	73	3	8
0	82	1	18	2	7	3	33
LBCmax: 361
RELDUE
-1	280	2	5
-1	296	3	8
-1	261	4	7
-1	284	7	4
-1	302	4	1
-1	271	3	4
-1	274	1	7
-1	273	5	6
-1	324	2	6
-1	306	2	5
-1	298	5	9
-1	274	5	9
-1	264	6	5
-1	256	4	7
-1	273	5	6
DDW
263	297
269	323
235	287
258	310
284	320
252	290
258	290
262	284
301	347
285	327
277	319
266	282
246	282
243	269
259	287
